
Gurobi 11.0.3 (mac64[x86]) logging started Mon Mar 31 13:29:12 2025

Set parameter LogFile to value "Results/SanityCheck/first_try_v7_with_hydrogen.log"

Gurobi 11.0.3 (mac64[x86]) logging started Mon Mar 31 13:43:45 2025

Set parameter LogFile to value "Results/SanityCheck/first_try_v7_with_hydrogen.log"
Set parameter TimeLimit to value 12600
Gurobi Optimizer version 11.0.3 build v11.0.3rc0 (mac64[x86] - Darwin 23.4.0 23E214)

CPU model: Intel(R) Core(TM) i7-1060NG7 CPU @ 1.20GHz
Thread count: 4 physical cores, 8 logical processors, using up to 8 threads

Optimize a model with 2758528 rows, 3273824 columns and 11744624 nonzeros
Model fingerprint: 0x48b66c7b
Coefficient statistics:
  Matrix range     [1e+00, 4e+00]
  Objective range  [3e-05, 5e+00]
  Bounds range     [0e+00, 0e+00]
  RHS range        [5e-01, 1e+03]
Presolve removed 1789264 rows and 1667008 columns
Presolve time: 3.16s

Solved in 0 iterations and 3.16 seconds (0.77 work units)
Infeasible or unbounded model

Gurobi 11.0.3 (mac64[x86]) logging started Mon Mar 31 13:48:42 2025

Set parameter LogFile to value "Results/SanityCheck/first_try_v7_with_hydrogen.log"
Set parameter TimeLimit to value 12600
Gurobi Optimizer version 11.0.3 build v11.0.3rc0 (mac64[x86] - Darwin 23.4.0 23E214)

CPU model: Intel(R) Core(TM) i7-1060NG7 CPU @ 1.20GHz
Thread count: 4 physical cores, 8 logical processors, using up to 8 threads

Optimize a model with 2758528 rows, 3273824 columns and 11744624 nonzeros
Model fingerprint: 0x98f714d2
Coefficient statistics:
  Matrix range     [1e+00, 4e+00]
  Objective range  [3e-05, 5e+00]
  Bounds range     [0e+00, 0e+00]
  RHS range        [2e-01, 1e+03]
Presolve removed 1789264 rows and 1667008 columns
Presolve time: 2.70s

Solved in 0 iterations and 2.70 seconds (0.77 work units)
Infeasible or unbounded model

Gurobi 11.0.3 (mac64[x86]) logging started Mon Mar 31 13:52:14 2025

Set parameter LogFile to value "Results/SanityCheck/first_try_v7_with_hydrogen.log"
Set parameter TimeLimit to value 12600
Gurobi Optimizer version 11.0.3 build v11.0.3rc0 (mac64[x86] - Darwin 23.4.0 23E214)

CPU model: Intel(R) Core(TM) i7-1060NG7 CPU @ 1.20GHz
Thread count: 4 physical cores, 8 logical processors, using up to 8 threads

Optimize a model with 2740472 rows, 3273824 columns and 11455728 nonzeros
Model fingerprint: 0xeb4da00d
Coefficient statistics:
  Matrix range     [1e+00, 1e+00]
  Objective range  [3e-05, 5e+00]
  Bounds range     [0e+00, 0e+00]
  RHS range        [2e-01, 1e+03]
Presolve removed 1786824 rows and 1667008 columns
Presolve time: 2.26s

Solved in 0 iterations and 2.26 seconds (0.76 work units)
Infeasible or unbounded model

Gurobi 11.0.3 (mac64[x86]) logging started Mon Mar 31 13:55:19 2025

Set parameter LogFile to value "Results/SanityCheck/first_try_v7_with_hydrogen.log"
Set parameter TimeLimit to value 12600
Gurobi Optimizer version 11.0.3 build v11.0.3rc0 (mac64[x86] - Darwin 23.4.0 23E214)

CPU model: Intel(R) Core(TM) i7-1060NG7 CPU @ 1.20GHz
Thread count: 4 physical cores, 8 logical processors, using up to 8 threads

Optimize a model with 2652800 rows, 3273824 columns and 11744624 nonzeros
Model fingerprint: 0x7bc055f9
Coefficient statistics:
  Matrix range     [1e+00, 4e+00]
  Objective range  [3e-05, 5e+00]
  Bounds range     [0e+00, 0e+00]
  RHS range        [2e-01, 1e+03]
Presolve removed 1757776 rows and 1752576 columns
Presolve time: 2.21s

Solved in 0 iterations and 2.21 seconds (0.81 work units)
Infeasible or unbounded model

Gurobi 11.0.3 (mac64[x86]) logging started Mon Mar 31 13:58:39 2025

Set parameter LogFile to value "Results/SanityCheck/first_try_v7_with_hydrogen.log"
Set parameter TimeLimit to value 12600
Gurobi Optimizer version 11.0.3 build v11.0.3rc0 (mac64[x86] - Darwin 23.4.0 23E214)

CPU model: Intel(R) Core(TM) i7-1060NG7 CPU @ 1.20GHz
Thread count: 4 physical cores, 8 logical processors, using up to 8 threads

Optimize a model with 2652800 rows, 3273824 columns and 11744624 nonzeros
Model fingerprint: 0x53398016
Coefficient statistics:
  Matrix range     [1e+00, 4e+00]
  Objective range  [3e-05, 5e+00]
  Bounds range     [0e+00, 0e+00]
  RHS range        [4e+00, 1e+03]
Presolve removed 1760112 rows and 1870000 columns (presolve time = 5s) ...
Presolve removed 2186824 rows and 2431646 columns (presolve time = 10s) ...
Presolve removed 2266952 rows and 2567038 columns
Presolve time: 11.58s
Presolved: 385848 rows, 706786 columns, 2357138 nonzeros

Concurrent LP optimizer: dual simplex and barrier
Showing barrier log only...

Ordering time: 0.36s

Barrier statistics:
 AA' NZ     : 1.317e+05
 Factor NZ  : 1.904e+06 (roughly 40 MB of memory)
 Factor Ops : 1.055e+09 (less than 1 second per iteration)
 Threads    : 3

                  Objective                Residual
Iter       Primal          Dual         Primal    Dual     Compl     Time
   0   8.45996610e+04  1.14468786e+07  5.91e+03 8.10e+00  1.41e+04    13s
   1  -1.28866897e+06  7.53998654e+06  1.42e+03 4.88e+00  2.98e+03    13s
   2  -1.24762497e+06  2.48265542e+06  5.86e+02 5.68e-01  9.28e+02    13s
   3  -4.80213490e+05  6.60286704e+05  6.28e+01 4.24e-02  1.35e+02    13s
   4  -8.81332591e+04  1.55847363e+05  9.56e+00 5.23e-03  2.38e+01    13s
   5  -9.52509136e+03  1.77470901e+04  5.81e-01 8.89e-06  2.12e+00    13s
   6  -8.84114007e+02  1.83274769e+03  4.16e-02 5.61e-13  1.87e-01    13s
   7   1.07933977e+02  8.03486335e+02  6.25e-03 1.97e-13  4.50e-02    14s
   8   2.87029945e+02  4.92776037e+02  1.47e-03 1.32e-13  1.31e-02    14s
   9   3.40705185e+02  4.17695483e+02  3.54e-04 1.35e-13  4.79e-03    14s
  10   3.52723181e+02  3.98950557e+02  1.67e-04 1.76e-13  2.86e-03    14s
  11   3.57838530e+02  3.84696634e+02  1.00e-04 2.57e-13  1.67e-03    14s
  12   3.63271997e+02  3.80017586e+02  4.11e-05 1.83e-13  1.02e-03    14s
  13   3.65108843e+02  3.73896679e+02  2.54e-05 2.13e-13  5.42e-04    14s
  14   3.66580967e+02  3.72178022e+02  1.51e-05 2.11e-13  3.45e-04    14s
  15   3.67883633e+02  3.70012108e+02  6.49e-06 2.32e-13  1.33e-04    14s
  16   3.68858333e+02  3.69264145e+02  9.10e-07 2.34e-13  2.50e-05    15s
  17   3.69035175e+02  3.69171066e+02  1.54e-07 3.31e-13  8.21e-06    15s

Barrier performed 17 iterations in 14.64 seconds (8.17 work units)
Barrier solve interrupted - model solved by another algorithm


Solved with dual simplex
Extra simplex iterations after uncrush: 320
Iteration    Objective       Primal Inf.    Dual Inf.      Time
   32525    3.6908425e+02   0.000000e+00   0.000000e+00     15s

Use crossover to convert LP symmetric solution to basic solution...
Crossover log...

   18736 DPushes remaining with DInf 0.0000000e+00                16s
       0 DPushes remaining with DInf 0.0000000e+00                17s

       8 PPushes remaining with PInf 0.0000000e+00                17s
       0 PPushes remaining with PInf 0.0000000e+00                17s

  Push phase complete: Pinf 0.0000000e+00, Dinf 1.2252754e-11     17s

Iteration    Objective       Primal Inf.    Dual Inf.      Time
   42716    3.6908425e+02   0.000000e+00   2.702810e+05     22s
   74092    3.6908425e+02   0.000000e+00   2.652193e+05     25s
Extra simplex iterations after uncrush: 47406

Stopped in 90122 iterations and 26.27 seconds (11.48 work units)
Solve interrupted

Gurobi 11.0.3 (mac64[x86]) logging started Mon Mar 31 14:01:58 2025

Set parameter LogFile to value "Results/SanityCheck/first_try_v7_with_hydrogen.log"
Set parameter TimeLimit to value 12600
Gurobi Optimizer version 11.0.3 build v11.0.3rc0 (mac64[x86] - Darwin 23.4.0 23E214)

CPU model: Intel(R) Core(TM) i7-1060NG7 CPU @ 1.20GHz
Thread count: 4 physical cores, 8 logical processors, using up to 8 threads

Optimize a model with 2768768 rows, 3273824 columns and 11860592 nonzeros
Model fingerprint: 0x83434dfa
Coefficient statistics:
  Matrix range     [1e+00, 4e+00]
  Objective range  [3e-05, 5e+00]
  Bounds range     [0e+00, 0e+00]
  RHS range        [1e-01, 1e+03]
Presolve removed 1744968 rows and 1619888 columns
Presolve time: 2.54s

Solved in 0 iterations and 2.54 seconds (0.70 work units)
Infeasible or unbounded model

Gurobi 11.0.3 (mac64[x86]) logging started Mon Mar 31 14:09:49 2025

Set parameter LogFile to value "Results/SanityCheck/first_try_v7_with_hydrogen.log"
Set parameter TimeLimit to value 12600
Gurobi Optimizer version 11.0.3 build v11.0.3rc0 (mac64[x86] - Darwin 23.4.0 23E214)

CPU model: Intel(R) Core(TM) i7-1060NG7 CPU @ 1.20GHz
Thread count: 4 physical cores, 8 logical processors, using up to 8 threads

Optimize a model with 2768768 rows, 3273824 columns and 11860592 nonzeros
Model fingerprint: 0x6e7e45c2
Coefficient statistics:
  Matrix range     [1e+00, 4e+00]
  Objective range  [3e-05, 5e+00]
  Bounds range     [0e+00, 0e+00]
  RHS range        [1e-01, 1e+03]
Presolve removed 2006304 rows and 2000000 columns (presolve time = 5s) ...
Presolve removed 2373333 rows and 2562637 columns (presolve time = 10s) ...
Presolve removed 2373333 rows and 2562637 columns
Presolve time: 10.48s
Presolved: 395435 rows, 711187 columns, 2415733 nonzeros

Concurrent LP optimizer: dual simplex and barrier
Showing barrier log only...

Ordering time: 3.36s

Barrier statistics:
 AA' NZ     : 4.349e+05
 Factor NZ  : 1.179e+07 (roughly 150 MB of memory)
 Factor Ops : 2.049e+10 (less than 1 second per iteration)
 Threads    : 3

                  Objective                Residual
Iter       Primal          Dual         Primal    Dual     Compl     Time
   0   9.07256360e+05  1.61913580e+07  3.52e+03 6.67e-01  1.05e+04    15s
   1  -3.10687186e+06  1.32353920e+07  8.43e+02 9.42e-01  1.91e+03    16s
   2  -2.17936485e+06  4.44301679e+06  1.13e+02 5.42e-02  2.76e+02    16s

Barrier performed 2 iterations in 16.70 seconds (10.28 work units)
Barrier solve interrupted - model solved by another algorithm


Solved with dual simplex
Extra simplex iterations after uncrush: 2883
Iteration    Objective       Primal Inf.    Dual Inf.      Time
   68692    3.9609159e+02   0.000000e+00   0.000000e+00     17s

Use crossover to convert LP symmetric solution to basic solution...
Crossover log...

   19532 DPushes remaining with DInf 0.0000000e+00                18s
       0 DPushes remaining with DInf 0.0000000e+00                18s

     217 PPushes remaining with PInf 0.0000000e+00                18s
       0 PPushes remaining with PInf 0.0000000e+00                18s

  Push phase complete: Pinf 0.0000000e+00, Dinf 1.5164148e-11     18s

Iteration    Objective       Primal Inf.    Dual Inf.      Time
   79906    3.9609159e+02   0.000000e+00   3.534849e+05     21s
  164666    3.9654310e+02   0.000000e+00   1.599630e+05     27s
  176118    3.9658637e+02   0.000000e+00   5.268934e+05     31s
  183012    3.9661609e+02   0.000000e+00   8.896493e+05     41s
  185851    3.9663425e+02   0.000000e+00   2.520839e+06     47s
  188024    3.9664907e+02   0.000000e+00   1.125827e+06     53s
  189837    3.9666137e+02   0.000000e+00   6.282486e+05     57s
  191802    3.9667318e+02   0.000000e+00   6.100626e+05     62s
  192770    3.9668157e+02   0.000000e+00   2.470055e+06     69s
  196976    3.9669658e+02   0.000000e+00   1.770632e+06     78s
  197861    3.9670108e+02   0.000000e+00   7.237264e+05     81s
  199004    3.9670623e+02   0.000000e+00   6.621005e+05     85s
  201325    3.9671399e+02   0.000000e+00   4.281157e+05     93s
  202118    3.9671658e+02   0.000000e+00   3.699919e+05     96s
  202911    3.9671891e+02   0.000000e+00   4.430229e+05    100s
  204589    3.9672371e+02   0.000000e+00   3.326448e+05    110s
  206168    3.9672734e+02   0.000000e+00   2.493396e+06    116s
  207754    3.9673079e+02   0.000000e+00   5.745341e+05    124s
  208547    3.9673242e+02   0.000000e+00   9.885790e+05    128s
  209964    3.9673449e+02   0.000000e+00   1.278711e+06    133s
  210765    3.9673587e+02   0.000000e+00   8.791656e+05    136s
  212455    3.9673891e+02   0.000000e+00   2.957768e+05    147s
  213821    3.9674119e+02   0.000000e+00   2.335380e+05    163s
  214702    3.9674235e+02   0.000000e+00   2.615863e+05    166s
  216467    3.9674444e+02   0.000000e+00   1.901992e+05    175s
  220714    3.9674762e+02   0.000000e+00   7.959237e+04    183s
  221865    3.9674873e+02   0.000000e+00   1.887491e+05    186s
  222930    3.9674962e+02   0.000000e+00   1.043909e+05    191s
  225055    3.9675112e+02   0.000000e+00   1.417516e+05    200s
  225848    3.9675168e+02   0.000000e+00   1.556309e+05    211s
  227144    3.9675289e+02   0.000000e+00   1.233767e+05    218s
  230095    3.9675392e+02   0.000000e+00   8.681457e+04    223s
  231294    3.9675452e+02   0.000000e+00   1.199181e+05    226s
  233909    3.9675574e+02   0.000000e+00   4.440485e+05    241s
  235085    3.9675622e+02   0.000000e+00   2.441209e+05    245s
  235878    3.9675659e+02   0.000000e+00   1.749937e+05    251s
  236917    3.9675711e+02   0.000000e+00   1.000001e+05    256s
  237741    3.9675745e+02   0.000000e+00   1.258267e+05    260s
  241549    3.9675830e+02   0.000000e+00   1.043788e+05    277s
  242342    3.9675864e+02   0.000000e+00   6.507835e+04    284s
  243181    3.9675893e+02   0.000000e+00   9.860184e+04    288s
  245050    3.9675935e+02   0.000000e+00   5.649642e+04    293s
  245843    3.9675961e+02   0.000000e+00   3.997676e+04    296s
  248230    3.9676009e+02   0.000000e+00   1.864843e+04    303s
  249023    3.9676034e+02   0.000000e+00   5.611631e+04    309s
  251155    3.9676077e+02   0.000000e+00   4.385204e+04    314s
  252749    3.9676109e+02   0.000000e+00   1.175142e+05    318s
  253542    3.9676130e+02   0.000000e+00   3.067976e+04    322s
  255151    3.9676163e+02   0.000000e+00   8.553913e+04    325s
  259081    3.9676214e+02   0.000000e+00   2.880751e+04    333s
  260945    3.9676236e+02   0.000000e+00   3.336978e+04    337s
  261957    3.9676249e+02   0.000000e+00   3.032799e+04    341s
  265211    3.9676288e+02   0.000000e+00   2.386520e+04    352s
  267116    3.9676308e+02   0.000000e+00   9.846414e+03    357s
  269524    3.9676328e+02   0.000000e+00   5.587446e+03    362s
  271352    3.9676343e+02   0.000000e+00   2.344049e+04    366s
  273138    3.9676362e+02   0.000000e+00   1.495456e+04    370s
  276397    3.9676392e+02   0.000000e+00   8.342272e+03    377s
  277943    3.9676407e+02   0.000000e+00   6.707462e+03    383s
  279292    3.9676417e+02   0.000000e+00   5.233535e+03    389s
  280678    3.9676427e+02   0.000000e+00   4.330415e+03    395s
  282559    3.9676442e+02   0.000000e+00   8.016442e+03    398s
  283954    3.9676452e+02   0.000000e+00   5.356023e+03    401s
  286302    3.9676466e+02   0.000000e+00   3.860641e+03    408s
  287626    3.9676473e+02   0.000000e+00   1.205003e+04    411s
  290619    3.9676491e+02   0.000000e+00   9.549079e+03    417s
  292187    3.9676500e+02   0.000000e+00   2.575053e+04    420s
  294273    3.9676510e+02   0.000000e+00   1.062741e+04    426s
  297255    3.9676523e+02   0.000000e+00   3.083101e+04    431s
  300804    3.9676536e+02   0.000000e+00   1.875371e+03    437s
  304054    3.9676543e+02   0.000000e+00   1.003881e+03    442s
  305803    3.9676546e+02   0.000000e+00   8.413929e+02    446s
  308699    3.9676550e+02   0.000000e+00   4.033877e+02    451s
  312199    3.9676552e+02   0.000000e+00   1.370285e+02    457s
  314829    3.9676553e+02   0.000000e+00   4.284549e-01    463s
  315052    3.9609159e+02   0.000000e+00   0.000000e+00    466s
Extra simplex iterations after uncrush: 235146

Solved in 315052 iterations and 466.26 seconds (217.53 work units)
Optimal objective  3.960915875e+02
